c "191335.clq"
p edge 100 1344
e 1 17
e 1 18
e 1 20
e 1 22
e 1 23
e 1 24
e 1 25
e 1 26
e 1 29
e 1 35
e 1 36
e 1 38
e 1 40
e 1 43
e 1 46
e 1 47
e 1 49
e 1 53
e 1 56
e 1 58
e 1 61
e 1 62
e 1 66
e 1 67
e 1 72
e 1 78
e 1 88
e 1 91
e 1 95
e 1 98
e 2 17
e 2 19
e 2 20
e 2 21
e 2 22
e 2 23
e 2 24
e 2 27
e 2 32
e 2 34
e 2 36
e 2 37
e 2 38
e 2 39
e 2 40
e 2 41
e 2 44
e 2 45
e 2 48
e 2 53
e 2 60
e 2 63
e 2 69
e 2 70
e 2 72
e 2 74
e 2 76
e 2 80
e 2 84
e 2 86
e 2 87
e 2 90
e 2 92
e 3 17
e 3 18
e 3 19
e 3 20
e 3 21
e 3 22
e 3 31
e 3 32
e 3 33
e 3 34
e 3 38
e 3 46
e 3 49
e 3 60
e 3 63
e 3 80
e 3 92
e 3 93
e 4 17
e 4 18
e 4 19
e 4 20
e 4 21
e 4 22
e 4 23
e 4 27
e 4 28
e 4 30
e 4 32
e 4 33
e 4 35
e 4 36
e 4 39
e 4 42
e 4 43
e 4 47
e 4 48
e 4 49
e 4 50
e 4 52
e 4 53
e 4 54
e 4 55
e 4 63
e 4 64
e 4 71
e 4 72
e 4 73
e 4 74
e 4 78
e 4 81
e 4 82
e 4 84
e 4 93
e 4 95
e 4 96
e 5 17
e 5 18
e 5 19
e 5 21
e 5 23
e 5 24
e 5 25
e 5 26
e 5 28
e 5 29
e 5 31
e 5 44
e 5 46
e 5 66
e 5 74
e 5 78
e 6 17
e 6 18
e 6 19
e 6 20
e 6 21
e 6 22
e 6 23
e 6 24
e 6 25
e 6 26
e 6 30
e 6 34
e 6 38
e 6 40
e 6 48
e 6 49
e 6 55
e 6 76
e 6 77
e 6 83
e 6 84
e 6 85
e 6 86
e 6 90
e 6 100
e 7 17
e 7 18
e 7 19
e 7 20
e 7 21
e 7 22
e 7 23
e 7 24
e 7 25
e 7 26
e 7 27
e 7 28
e 7 30
e 7 32
e 7 34
e 7 35
e 7 38
e 7 39
e 7 40
e 7 46
e 7 52
e 7 53
e 7 57
e 7 59
e 7 63
e 7 64
e 7 66
e 7 68
e 7 70
e 7 73
e 7 74
e 7 77
e 7 78
e 7 88
e 7 89
e 7 91
e 7 94
e 7 95
e 7 98
e 7 100
e 8 17
e 8 18
e 8 19
e 8 20
e 8 21
e 8 22
e 8 26
e 8 27
e 8 29
e 8 38
e 8 41
e 8 43
e 8 49
e 8 50
e 8 51
e 8 52
e 8 53
e 8 54
e 8 55
e 8 60
e 8 62
e 8 64
e 8 76
e 8 84
e 8 86
e 8 89
e 8 96
e 9 17
e 9 18
e 9 19
e 9 20
e 9 21
e 9 22
e 9 24
e 9 25
e 9 26
e 9 27
e 9 30
e 9 32
e 9 33
e 9 35
e 9 37
e 9 38
e 9 39
e 9 43
e 9 50
e 9 53
e 9 54
e 9 56
e 9 58
e 9 59
e 9 66
e 9 67
e 9 68
e 9 72
e 9 75
e 9 80
e 9 81
e 9 85
e 9 92
e 9 95
e 9 97
e 9 100
e 10 17
e 10 18
e 10 19
e 10 20
e 10 23
e 10 24
e 10 25
e 10 29
e 10 34
e 10 35
e 10 65
e 10 67
e 10 75
e 10 90
e 10 93
e 11 17
e 11 18
e 11 41
e 11 100
e 12 17
e 12 18
e 12 19
e 12 21
e 12 27
e 12 31
e 12 33
e 12 42
e 12 51
e 12 62
e 12 65
e 12 66
e 12 75
e 12 88
e 12 96
e 13 17
e 13 18
e 13 19
e 13 20
e 13 21
e 13 22
e 13 23
e 13 24
e 13 26
e 13 28
e 13 29
e 13 30
e 13 31
e 13 37
e 13 39
e 13 40
e 13 41
e 13 42
e 13 44
e 13 45
e 13 47
e 13 48
e 13 53
e 13 61
e 13 65
e 13 69
e 13 70
e 13 77
e 13 82
e 13 85
e 13 87
e 13 90
e 13 91
e 13 93
e 13 97
e 13 99
e 14 17
e 14 18
e 14 19
e 14 20
e 14 21
e 14 23
e 14 24
e 14 25
e 14 26
e 14 30
e 14 32
e 14 33
e 14 35
e 14 39
e 14 40
e 14 52
e 14 57
e 14 58
e 14 61
e 14 62
e 14 64
e 14 71
e 14 72
e 14 73
e 14 75
e 14 77
e 14 89
e 14 92
e 14 96
e 15 17
e 15 18
e 15 19
e 15 20
e 15 22
e 15 24
e 15 25
e 15 28
e 15 29
e 15 34
e 15 36
e 15 40
e 15 41
e 15 42
e 15 44
e 15 46
e 15 48
e 15 50
e 15 51
e 15 54
e 15 55
e 15 57
e 15 61
e 15 68
e 15 75
e 15 77
e 15 78
e 15 82
e 15 83
e 15 87
e 15 99
e 15 100
e 16 17
e 16 18
e 16 19
e 16 20
e 16 21
e 16 22
e 16 23
e 16 28
e 16 29
e 16 30
e 16 34
e 16 35
e 16 36
e 16 37
e 16 49
e 16 57
e 16 60
e 16 63
e 16 72
e 16 76
e 16 87
e 16 94
e 16 95
e 17 18
e 17 19
e 17 20
e 17 21
e 17 22
e 17 23
e 17 24
e 17 25
e 17 26
e 17 27
e 17 28
e 17 29
e 17 30
e 17 31
e 17 33
e 17 36
e 17 37
e 17 38
e 17 39
e 17 41
e 17 42
e 17 43
e 17 44
e 17 45
e 17 46
e 17 47
e 17 49
e 17 50
e 17 51
e 17 54
e 17 55
e 17 56
e 17 59
e 17 60
e 17 65
e 17 68
e 17 69
e 17 70
e 17 71
e 17 76
e 17 81
e 17 83
e 17 84
e 17 86
e 17 87
e 17 90
e 17 92
e 17 97
e 18 19
e 18 20
e 18 21
e 18 22
e 18 23
e 18 24
e 18 25
e 18 26
e 18 27
e 18 28
e 18 29
e 18 30
e 18 31
e 18 33
e 18 34
e 18 35
e 18 36
e 18 37
e 18 39
e 18 40
e 18 42
e 18 43
e 18 44
e 18 47
e 18 48
e 18 49
e 18 50
e 18 51
e 18 52
e 18 53
e 18 54
e 18 56
e 18 59
e 18 61
e 18 64
e 18 66
e 18 68
e 18 69
e 18 72
e 18 77
e 18 78
e 18 81
e 18 85
e 18 86
e 19 20
e 19 21
e 19 22
e 19 23
e 19 24
e 19 25
e 19 26
e 19 27
e 19 28
e 19 29
e 19 30
e 19 31
e 19 32
e 19 33
e 19 34
e 19 35
e 19 36
e 19 40
e 19 42
e 19 44
e 19 45
e 19 46
e 19 47
e 19 48
e 19 51
e 19 52
e 19 54
e 19 57
e 19 58
e 19 59
e 19 60
e 19 61
e 19 62
e 19 63
e 19 64
e 19 65
e 19 66
e 19 70
e 19 72
e 19 73
e 19 81
e 19 85
e 19 90
e 19 92
e 19 93
e 19 98
e 19 100
e 20 21
e 20 22
e 20 23
e 20 24
e 20 25
e 20 27
e 20 28
e 20 29
e 20 30
e 20 31
e 20 32
e 20 33
e 20 34
e 20 36
e 20 37
e 20 38
e 20 40
e 20 41
e 20 44
e 20 45
e 20 46
e 20 51
e 20 56
e 20 60
e 20 64
e 20 65
e 20 67
e 20 69
e 20 70
e 20 71
e 20 77
e 20 79
e 20 84
e 20 89
e 20 98
e 21 22
e 21 23
e 21 24
e 21 25
e 21 26
e 21 27
e 21 28
e 21 29
e 21 31
e 21 33
e 21 34
e 21 35
e 21 36
e 21 37
e 21 38
e 21 41
e 21 43
e 21 44
e 21 45
e 21 47
e 21 48
e 21 51
e 21 52
e 21 56
e 21 57
e 21 62
e 21 63
e 21 67
e 21 71
e 21 73
e 21 77
e 21 78
e 21 79
e 21 80
e 21 87
e 21 88
e 21 89
e 21 97
e 21 99
e 22 23
e 22 24
e 22 25
e 22 26
e 22 27
e 22 28
e 22 29
e 22 31
e 22 32
e 22 36
e 22 37
e 22 41
e 22 42
e 22 43
e 22 47
e 22 50
e 22 51
e 22 56
e 22 58
e 22 59
e 22 61
e 22 64
e 22 69
e 22 71
e 22 74
e 22 85
e 22 87
e 22 89
e 22 91
e 22 92
e 22 93
e 22 94
e 23 25
e 23 26
e 23 27
e 23 28
e 23 29
e 23 31
e 23 32
e 23 35
e 23 38
e 23 41
e 23 42
e 23 45
e 23 46
e 23 48
e 23 52
e 23 55
e 23 59
e 23 63
e 23 66
e 23 69
e 23 72
e 23 74
e 23 75
e 23 78
e 23 80
e 23 85
e 23 88
e 23 91
e 24 25
e 24 26
e 24 27
e 24 28
e 24 30
e 24 32
e 24 33
e 24 37
e 24 39
e 24 40
e 24 44
e 24 45
e 24 47
e 24 49
e 24 50
e 24 51
e 24 55
e 24 57
e 24 64
e 24 67
e 24 69
e 24 72
e 24 79
e 24 80
e 24 82
e 24 86
e 24 88
e 24 92
e 24 93
e 24 95
e 25 26
e 25 27
e 25 28
e 25 31
e 25 32
e 25 35
e 25 37
e 25 38
e 25 39
e 25 41
e 25 42
e 25 44
e 25 45
e 25 48
e 25 53
e 25 54
e 25 55
e 25 56
e 25 58
e 25 61
e 25 62
e 25 65
e 25 67
e 25 78
e 25 83
e 25 86
e 25 90
e 25 98
e 25 99
e 26 27
e 26 28
e 26 29
e 26 30
e 26 32
e 26 34
e 26 37
e 26 38
e 26 40
e 26 41
e 26 43
e 26 54
e 26 56
e 26 57
e 26 60
e 26 70
e 26 74
e 26 78
e 26 80
e 26 83
e 26 86
e 26 91
e 26 94
e 26 99
e 27 29
e 27 30
e 27 31
e 27 32
e 27 33
e 27 35
e 27 36
e 27 38
e 27 40
e 27 43
e 27 45
e 27 46
e 27 47
e 27 48
e 27 49
e 27 52
e 27 54
e 27 58
e 27 59
e 27 60
e 27 63
e 27 65
e 27 68
e 27 70
e 27 71
e 27 72
e 27 73
e 27 76
e 27 77
e 27 81
e 27 82
e 27 83
e 27 85
e 27 91
e 27 93
e 28 30
e 28 31
e 28 33
e 28 34
e 28 43
e 28 45
e 28 47
e 28 50
e 28 52
e 28 54
e 28 59
e 28 60
e 28 72
e 28 84
e 28 86
e 28 89
e 28 97
e 28 98
e 28 99
e 29 30
e 29 31
e 29 32
e 29 33
e 29 35
e 29 41
e 29 43
e 29 45
e 29 48
e 29 55
e 29 58
e 29 61
e 29 63
e 29 64
e 29 67
e 29 68
e 29 75
e 29 76
e 29 80
e 29 81
e 29 86
e 29 96
e 30 31
e 30 33
e 30 34
e 30 36
e 30 44
e 30 46
e 30 53
e 30 61
e 30 65
e 30 66
e 30 68
e 30 69
e 30 74
e 30 79
e 30 83
e 30 84
e 30 92
e 30 96
e 30 98
e 31 32
e 31 33
e 31 34
e 31 37
e 31 38
e 31 39
e 31 42
e 31 43
e 31 47
e 31 50
e 31 52
e 31 54
e 31 58
e 31 67
e 31 69
e 31 70
e 31 82
e 31 93
e 31 96
e 32 34
e 32 36
e 32 37
e 32 39
e 32 41
e 32 42
e 32 43
e 32 45
e 32 46
e 32 48
e 32 50
e 32 52
e 32 57
e 32 59
e 32 61
e 32 62
e 32 66
e 32 68
e 32 69
e 32 73
e 32 89
e 32 90
e 32 96
e 32 100
e 33 35
e 33 36
e 33 40
e 33 42
e 33 49
e 33 52
e 33 53
e 33 54
e 33 57
e 33 58
e 33 60
e 33 65
e 33 69
e 33 76
e 33 79
e 33 81
e 33 83
e 33 91
e 33 93
e 33 94
e 33 95
e 34 35
e 34 37
e 34 40
e 34 41
e 34 42
e 34 44
e 34 49
e 34 51
e 34 62
e 34 63
e 34 64
e 34 65
e 34 70
e 34 79
e 34 80
e 34 82
e 34 88
e 34 93
e 34 95
e 35 36
e 35 39
e 35 41
e 35 46
e 35 48
e 35 49
e 35 51
e 35 53
e 35 64
e 35 71
e 35 78
e 35 79
e 35 84
e 35 85
e 35 90
e 35 91
e 35 92
e 35 99
e 35 100
e 36 37
e 36 38
e 36 39
e 36 42
e 36 47
e 36 49
e 36 52
e 36 54
e 36 55
e 36 57
e 36 62
e 36 68
e 36 70
e 36 74
e 36 76
e 36 81
e 36 82
e 36 89
e 36 95
e 36 96
e 36 98
e 37 39
e 37 43
e 37 47
e 37 68
e 37 80
e 37 84
e 37 89
e 37 98
e 38 39
e 38 40
e 38 44
e 38 46
e 38 49
e 38 50
e 38 52
e 38 55
e 38 56
e 38 62
e 38 65
e 38 67
e 38 70
e 38 74
e 38 75
e 38 81
e 38 97
e 38 100
e 39 43
e 39 50
e 39 53
e 39 58
e 39 65
e 39 68
e 39 71
e 39 75
e 39 76
e 39 82
e 39 86
e 39 87
e 40 44
e 40 56
e 40 60
e 40 62
e 40 63
e 40 82
e 40 85
e 40 95
e 41 42
e 41 45
e 41 48
e 41 56
e 41 63
e 41 67
e 41 80
e 41 82
e 41 99
e 42 47
e 42 48
e 42 56
e 42 57
e 42 58
e 42 59
e 42 60
e 42 61
e 42 64
e 42 67
e 42 73
e 42 84
e 42 91
e 43 44
e 43 45
e 43 46
e 43 50
e 43 51
e 43 52
e 43 61
e 43 79
e 43 80
e 43 81
e 43 84
e 43 85
e 43 89
e 43 91
e 43 97
e 43 98
e 44 45
e 44 46
e 44 50
e 44 57
e 44 69
e 44 73
e 44 75
e 44 94
e 45 47
e 45 51
e 45 57
e 45 58
e 45 60
e 45 61
e 45 63
e 45 65
e 45 68
e 45 72
e 45 83
e 45 84
e 45 85
e 45 86
e 45 89
e 45 92
e 45 99
e 46 49
e 46 54
e 46 55
e 46 63
e 46 71
e 46 73
e 46 77
e 46 80
e 46 86
e 46 91
e 46 94
e 46 100
e 47 50
e 47 51
e 47 55
e 47 64
e 47 87
e 47 88
e 47 94
e 48 55
e 48 57
e 48 66
e 48 69
e 48 71
e 48 78
e 48 82
e 48 90
e 48 93
e 48 97
e 49 51
e 49 53
e 49 55
e 49 56
e 49 59
e 49 62
e 49 69
e 49 74
e 49 75
e 49 76
e 49 87
e 49 96
e 50 53
e 50 55
e 50 66
e 50 71
e 50 75
e 50 79
e 50 85
e 50 88
e 50 94
e 50 96
e 51 58
e 51 59
e 51 60
e 51 72
e 51 76
e 51 78
e 51 82
e 51 94
e 51 98
e 52 53
e 52 56
e 52 59
e 52 62
e 52 67
e 52 71
e 52 73
e 52 77
e 52 87
e 52 93
e 52 99
e 53 54
e 53 56
e 53 57
e 53 76
e 53 77
e 53 80
e 53 82
e 53 83
e 53 84
e 53 88
e 53 97
e 54 66
e 54 68
e 54 82
e 54 98
e 55 58
e 55 62
e 55 73
e 55 81
e 55 92
e 55 96
e 56 59
e 56 60
e 56 73
e 56 86
e 56 95
e 57 58
e 57 59
e 57 61
e 57 68
e 57 79
e 57 81
e 57 90
e 57 94
e 58 61
e 58 62
e 58 64
e 58 66
e 58 69
e 58 72
e 58 75
e 58 76
e 58 88
e 58 92
e 58 94
e 58 97
e 58 100
e 59 65
e 59 70
e 59 72
e 59 77
e 59 79
e 59 80
e 59 81
e 59 92
e 60 63
e 60 67
e 60 73
e 60 74
e 60 81
e 60 85
e 60 88
e 60 95
e 61 64
e 61 66
e 61 74
e 61 98
e 62 67
e 62 79
e 62 83
e 62 89
e 62 91
e 63 65
e 63 68
e 63 75
e 63 83
e 63 84
e 64 66
e 64 74
e 64 77
e 64 78
e 64 79
e 64 82
e 64 93
e 64 95
e 64 99
e 65 67
e 65 76
e 65 96
e 66 70
e 66 73
e 66 76
e 66 79
e 66 93
e 66 100
e 67 90
e 67 92
e 67 97
e 68 70
e 68 71
e 68 75
e 68 87
e 68 90
e 68 94
e 68 99
e 69 70
e 69 71
e 69 74
e 69 75
e 69 78
e 69 81
e 69 83
e 69 100
e 70 71
e 70 73
e 70 77
e 70 94
e 71 84
e 71 97
e 72 74
e 72 79
e 72 83
e 72 85
e 72 87
e 72 92
e 72 95
e 73 83
e 73 89
e 73 94
e 73 95
e 73 97
e 74 90
e 75 78
e 75 85
e 75 94
e 76 77
e 76 79
e 77 87
e 77 88
e 77 96
e 78 83
e 78 91
e 79 80
e 79 90
e 79 91
e 79 99
e 80 89
e 80 95
e 80 96
e 80 99
e 81 86
e 81 93
e 81 97
e 83 88
e 83 100
e 84 86
e 84 89
e 84 90
e 84 99
e 85 87
e 85 88
e 85 98
e 86 87
e 86 88
e 87 97
e 87 100
e 89 96
e 90 91
e 90 98
e 92 100
e 94 99
e 96 97
e 97 98
